(set-logic QF_S)
(declare-fun var0 () String)
(assert (RegexIn var0 (RegexConcat (RegexUnion (RegexUnion (RegexStar (RegexUnion (RegexPlus (Str2Reg "0")) (RegexPlus (Str2Reg "11")))) (RegexStar (RegexStar (RegexPlus (Str2Reg "222"))))) (RegexUnion (RegexPlus (RegexPlus (RegexUnion (Str2Reg "3") (Str2Reg "44")))) (RegexPlus (RegexUnion (RegexPlus (Str2Reg "5")) (RegexPlus (Str2Reg "666")))))) (RegexStar (RegexUnion (RegexStar (RegexStar (RegexPlus (Str2Reg "7")))) (RegexStar (RegexUnion (RegexUnion (Str2Reg "8") (Str2Reg "99")) (RegexUnion (Str2Reg "a") (Str2Reg "bb")))))))))
(assert (<= 15 (Length var0)))
(check-sat)